n_clientes = 7;
n_sitios = 6;
costo_fijo_sitios = [10.0, 10.0, 10.0, 10.0, 10.0, 10.0];
capacidad_maxima_sitios = [6, 6, 6, 6, 6, 6];
demanda_clientes = [1.5, 2.0, 3.0, 4.0, 2.5, 1.0, 2.0];
beneficio_por_unidad = 
[|4.0,4.0,3.5,1.3,0.5,-1.0
|4.5,4.5,5.0,3.0,1.0,0.0
|2.5,2.5,4.0,5.0,1.5,1.5
|0.5,4.2,3.5,3.3,5.0,3.3
|1.0,3.5,4.5,5.5,4.0,4.0
|0.5,1.5,1.5,1.8,5.5,4.5
|-3.5,-0.5,0.0,1.3,3.0,2.0|];
